c Sudoku solution
p cnf 729 0
121 0
147 0
185 0
194 0
216 0
223 0
265 0
282 0
298 0
373 0
386 0
179 0
424 0
531 0
549 0
595 0
627 0
638 0
132 0
118 0
737 0
317 0
277 0
391 0
756 0
153 0
166 0
855 0
862 0
884 0
897 0
935 0
775 0
325 0
951 0
967 0
769 0
241 0
988 0
999 0
829 0
728 0
848 0
813 0
711 0
836 0
914 0
922 0
783 0
871 0
792 0
976 0
744 0
943 0
512 0
526 0
433 0
342 0
587 0
457 0
652 0
563 0
674 0
578 0
472 0
496 0
693 0
445 0
646 0
419 0
615 0
468 0
661 0
554 0
481 0
689 0
259 0
234 0
339 0
358 0
364 0
